NAME 
ROWS
 N  OBJ
 L  R0      
 L  R1      
 E  R2      
 E  R3      
 E  R4      
 E  R5      
 E  R6      
 E  R7      
 E  R8      
 E  R9      
 E  R10     
 E  R11     
 E  R12     
 E  R13     
 E  R14     
 E  R15     
 E  R16     
 E  R17     
 E  R18     
 E  R19     
 E  R20     
 E  R21     
 E  R22     
 E  R23     
 E  R24     
 E  R25     
 E  R26     
COLUMNS
    MARKER    'MARKER'                 'INTORG'
    I0(13)    OBJ       66
    I0(13)    R0        117
    I0(13)    R1        -179
    I0(13)    R2        19
    I0(13)    R3        18
    I0(13)    R5        7
    I0(13)    R6        13
    I0(13)    R7        6
    I0(13)    R9        18
    I0(13)    R10       2
    I0(13)    R11       16
    I0(13)    R12       2
    I0(13)    R13       17
    I0(13)    R26       1
    I1(14)    OBJ       -165
    I1(14)    R0        121
    I1(14)    R1        199
    I1(14)    R2        7
    I1(14)    R3        10
    I1(14)    R4        -1
    I1(14)    R5        16
    I1(14)    R6        18
    I1(14)    R7        -1
    I1(14)    R8        17
    I1(14)    R9        7
    I1(14)    R10       12
    I1(14)    R12       3
    I1(14)    R13       19
    I1(14)    R26       1
    I2(11)    OBJ       -14
    I2(11)    R0        6
    I2(11)    R1        -33
    I2(11)    R2        10
    I2(11)    R3        16
    I2(11)    R4        17
    I2(11)    R5        18
    I2(11)    R6        15
    I2(11)    R8        16
    I2(11)    R9        9
    I2(11)    R12       17
    I2(11)    R26       1
    I3(12)    OBJ       67
    I3(12)    R0        93
    I3(12)    R1        -142
    I3(12)    R2        3
    I3(12)    R3        14
    I3(12)    R4        3
    I3(12)    R6        11
    I3(12)    R7        14
    I3(12)    R8        4
    I3(12)    R11       2
    I3(12)    R12       10
    I3(12)    R13       3
    I3(12)    R26       1
    I4(14)    OBJ       72
    I4(14)    R0        162
    I4(14)    R1        153
    I4(14)    R2        -1
    I4(14)    R4        18
    I4(14)    R5        3
    I4(14)    R6        18
    I4(14)    R7        12
    I4(14)    R8        17
    I4(14)    R9        11
    I4(14)    R10       8
    I4(14)    R11       10
    I4(14)    R12       1
    I4(14)    R13       15
    I4(14)    R26       1
    I5(13)    OBJ       -158
    I5(13)    R0        -174
    I5(13)    R1        191
    I5(13)    R2        2
    I5(13)    R3        12
    I5(13)    R4        19
    I5(13)    R5        4
    I5(13)    R6        7
    I5(13)    R7        5
    I5(13)    R10       8
    I5(13)    R11       15
    I5(13)    R12       11
    I5(13)    R13       12
    I5(13)    R26       1
    I6(13)    OBJ       -54
    I6(13)    R0        177
    I6(13)    R1        163
    I6(13)    R3        6
    I6(13)    R5        16
    I6(13)    R6        1
    I6(13)    R7        9
    I6(13)    R8        2
    I6(13)    R9        15
    I6(13)    R10       1
    I6(13)    R11       17
    I6(13)    R12       4
    I6(13)    R13       1
    I6(13)    R26       1
    I7(12)    OBJ       -26
    I7(12)    R0        51
    I7(12)    R1        177
    I7(12)    R2        3
    I7(12)    R3        12
    I7(12)    R5        17
    I7(12)    R6        7
    I7(12)    R7        8
    I7(12)    R8        14
    I7(12)    R9        19
    I7(12)    R10       16
    I7(12)    R11       -1
    I7(12)    R26       1
    I8(13)    OBJ       121
    I8(13)    R0        -49
    I8(13)    R1        121
    I8(13)    R3        15
    I8(13)    R4        12
    I8(13)    R5        14
    I8(13)    R6        16
    I8(13)    R7        5
    I8(13)    R8        1
    I8(13)    R9        3
    I8(13)    R10       12
    I8(13)    R11       13
    I8(13)    R12       2
    I8(13)    R26       1
    I9(12)    OBJ       -138
    I9(12)    R0        138
    I9(12)    R1        24
    I9(12)    R2        9
    I9(12)    R3        11
    I9(12)    R4        18
    I9(12)    R5        16
    I9(12)    R7        4
    I9(12)    R8        19
    I9(12)    R9        -1
    I9(12)    R12       16
    I9(12)    R13       11
    I9(12)    R26       1
    I10(15)   OBJ       -17
    I10(15)   R0        -10
    I10(15)   R1        55
    I10(15)   R2        11
    I10(15)   R3        8
    I10(15)   R4        18
    I10(15)   R5        9
    I10(15)   R6        18
    I10(15)   R7        6
    I10(15)   R8        10
    I10(15)   R9        9
    I10(15)   R10       11
    I10(15)   R11       5
    I10(15)   R12       4
    I10(15)   R13       -1
    I10(15)   R26       1
    I11(13)   OBJ       -154
    I11(13)   R0        193
    I11(13)   R1        -73
    I11(13)   R2        8
    I11(13)   R4        4
    I11(13)   R5        13
    I11(13)   R6        4
    I11(13)   R8        17
    I11(13)   R9        19
    I11(13)   R10       19
    I11(13)   R11       5
    I11(13)   R12       18
    I11(13)   R13       11
    I11(13)   R26       1
    MARKER    'MARKER'                 'INTEND'
    C12(21)   OBJ       7
    C12(21)   R0        2
    C12(21)   R1        -6
    C12(21)   R2        19
    C12(21)   R4        4
    C12(21)   R5        12
    C12(21)   R6        4
    C12(21)   R7        8
    C12(21)   R8        1
    C12(21)   R9        8
    C12(21)   R10       17
    C12(21)   R11       15
    C12(21)   R13       18
    C12(21)   R14       10
    C12(21)   R16       12
    C12(21)   R17       19
    C12(21)   R18       10
    C12(21)   R19       17
    C12(21)   R20       11
    C12(21)   R23       16
    C12(21)   R24       4
    C12(21)   R25       4
    C13(20)   OBJ       -4
    C13(20)   R0        -5
    C13(20)   R1        -10
    C13(20)   R2        4
    C13(20)   R3        19
    C13(20)   R6        6
    C13(20)   R7        4
    C13(20)   R9        16
    C13(20)   R10       12
    C13(20)   R12       18
    C13(20)   R13       3
    C13(20)   R14       5
    C13(20)   R17       2
    C13(20)   R18       9
    C13(20)   R19       19
    C13(20)   R20       -1
    C13(20)   R21       2
    C13(20)   R22       9
    C13(20)   R23       15
    C13(20)   R24       11
    C13(20)   R25       14
    C14(24)   OBJ       -5
    C14(24)   R0        -1
    C14(24)   R1        2
    C14(24)   R2        17
    C14(24)   R3        15
    C14(24)   R4        15
    C14(24)   R5        2
    C14(24)   R6        14
    C14(24)   R7        13
    C14(24)   R9        7
    C14(24)   R10       2
    C14(24)   R11       11
    C14(24)   R12       17
    C14(24)   R13       7
    C14(24)   R14       3
    C14(24)   R15       14
    C14(24)   R16       11
    C14(24)   R17       11
    C14(24)   R18       5
    C14(24)   R19       19
    C14(24)   R20       15
    C14(24)   R21       12
    C14(24)   R23       8
    C14(24)   R24       6
    C14(24)   R25       14
    C15(20)   OBJ       -10
    C15(20)   R0        -6
    C15(20)   R1        -9
    C15(20)   R2        6
    C15(20)   R4        5
    C15(20)   R5        14
    C15(20)   R6        8
    C15(20)   R7        -1
    C15(20)   R8        13
    C15(20)   R9        6
    C15(20)   R10       16
    C15(20)   R11       18
    C15(20)   R12       11
    C15(20)   R14       7
    C15(20)   R16       2
    C15(20)   R17       18
    C15(20)   R18       8
    C15(20)   R19       15
    C15(20)   R21       3
    C15(20)   R22       10
    C15(20)   R23       7
    C16(21)   OBJ       4
    C16(21)   R0        -2
    C16(21)   R1        -10
    C16(21)   R2        4
    C16(21)   R3        1
    C16(21)   R5        19
    C16(21)   R7        12
    C16(21)   R8        11
    C16(21)   R10       5
    C16(21)   R12       1
    C16(21)   R13       18
    C16(21)   R14       18
    C16(21)   R16       6
    C16(21)   R17       16
    C16(21)   R18       1
    C16(21)   R19       7
    C16(21)   R20       6
    C16(21)   R21       16
    C16(21)   R22       9
    C16(21)   R23       2
    C16(21)   R24       5
    C16(21)   R25       6
    C17(19)   OBJ       8
    C17(19)   R0        2
    C17(19)   R1        7
    C17(19)   R3        8
    C17(19)   R4        8
    C17(19)   R7        4
    C17(19)   R8        7
    C17(19)   R10       10
    C17(19)   R11       7
    C17(19)   R12       2
    C17(19)   R13       12
    C17(19)   R14       15
    C17(19)   R15       6
    C17(19)   R16       14
    C17(19)   R18       15
    C17(19)   R19       9
    C17(19)   R22       8
    C17(19)   R23       3
    C17(19)   R24       1
    C17(19)   R25       11
    C18(22)   OBJ       8
    C18(22)   R0        -4
    C18(22)   R1        3
    C18(22)   R2        2
    C18(22)   R3        5
    C18(22)   R4        14
    C18(22)   R5        12
    C18(22)   R6        11
    C18(22)   R7        15
    C18(22)   R8        5
    C18(22)   R10       12
    C18(22)   R11       9
    C18(22)   R12       4
    C18(22)   R13       12
    C18(22)   R15       1
    C18(22)   R16       5
    C18(22)   R17       7
    C18(22)   R18       8
    C18(22)   R20       5
    C18(22)   R22       8
    C18(22)   R23       6
    C18(22)   R24       2
    C18(22)   R25       17
    C19(20)   OBJ       3
    C19(20)   R0        1
    C19(20)   R1        3
    C19(20)   R2        4
    C19(20)   R3        19
    C19(20)   R4        16
    C19(20)   R5        1
    C19(20)   R6        16
    C19(20)   R7        11
    C19(20)   R8        14
    C19(20)   R9        7
    C19(20)   R11       13
    C19(20)   R13       15
    C19(20)   R14       9
    C19(20)   R15       11
    C19(20)   R16       18
    C19(20)   R17       8
    C19(20)   R19       15
    C19(20)   R21       1
    C19(20)   R22       17
    C19(20)   R23       11
    C20(20)   OBJ       -5
    C20(20)   R0        1
    C20(20)   R1        7
    C20(20)   R2        7
    C20(20)   R4        6
    C20(20)   R5        1
    C20(20)   R6        1
    C20(20)   R7        5
    C20(20)   R10       18
    C20(20)   R11       15
    C20(20)   R13       -1
    C20(20)   R15       14
    C20(20)   R16       8
    C20(20)   R17       4
    C20(20)   R18       13
    C20(20)   R19       14
    C20(20)   R21       12
    C20(20)   R22       1
    C20(20)   R23       17
    C20(20)   R24       8
    C20(20)   R25       4
    C21(22)   OBJ       8
    C21(22)   R0        7
    C21(22)   R1        1
    C21(22)   R2        2
    C21(22)   R3        1
    C21(22)   R4        6
    C21(22)   R5        9
    C21(22)   R6        17
    C21(22)   R7        4
    C21(22)   R8        2
    C21(22)   R9        4
    C21(22)   R10       4
    C21(22)   R11       9
    C21(22)   R12       8
    C21(22)   R13       15
    C21(22)   R14       12
    C21(22)   R15       3
    C21(22)   R17       7
    C21(22)   R18       15
    C21(22)   R20       19
    C21(22)   R21       17
    C21(22)   R24       13
    C21(22)   R25       13
    C22(18)   OBJ       -8
    C22(18)   R0        -7
    C22(18)   R1        3
    C22(18)   R2        6
    C22(18)   R3        5
    C22(18)   R4        16
    C22(18)   R6        18
    C22(18)   R8        10
    C22(18)   R9        18
    C22(18)   R10       13
    C22(18)   R11       5
    C22(18)   R12       14
    C22(18)   R13       6
    C22(18)   R18       17
    C22(18)   R19       15
    C22(18)   R21       4
    C22(18)   R22       3
    C22(18)   R23       11
    C22(18)   R24       8
    C23(19)   OBJ       -4
    C23(19)   R0        -3
    C23(19)   R1        8
    C23(19)   R2        5
    C23(19)   R4        5
    C23(19)   R6        15
    C23(19)   R7        17
    C23(19)   R8        13
    C23(19)   R9        -1
    C23(19)   R10       6
    C23(19)   R11       11
    C23(19)   R12       1
    C23(19)   R14       -1
    C23(19)   R16       13
    C23(19)   R17       19
    C23(19)   R20       19
    C23(19)   R21       -1
    C23(19)   R23       12
    C23(19)   R24       1
    C23(19)   R25       9
    C24(24)   OBJ       -3
    C24(24)   R0        -1
    C24(24)   R1        1
    C24(24)   R3        14
    C24(24)   R4        6
    C24(24)   R5        6
    C24(24)   R6        17
    C24(24)   R7        2
    C24(24)   R8        -1
    C24(24)   R9        8
    C24(24)   R10       18
    C24(24)   R11       13
    C24(24)   R12       4
    C24(24)   R13       11
    C24(24)   R14       15
    C24(24)   R15       2
    C24(24)   R16       6
    C24(24)   R18       16
    C24(24)   R19       10
    C24(24)   R20       1
    C24(24)   R21       6
    C24(24)   R22       16
    C24(24)   R23       4
    C24(24)   R24       13
    C24(24)   R25       5
    C25(1)    R2        1
    C26(1)    R3        1
    C27(1)    R4        1
    C28(1)    R5        1
    C29(1)    R6        1
    C30(1)    R7        1
    C31(1)    R8        1
    C32(1)    R9        1
    C33(1)    R10       1
    C34(1)    R11       1
    C35(1)    R12       1
    C36(1)    R13       1
    C37(1)    R14       1
    C38(1)    R15       1
    C39(1)    R16       1
    C40(1)    R17       1
    C41(1)    R18       1
    C42(1)    R19       1
    C43(1)    R20       1
    C44(1)    R21       1
    C45(1)    R22       1
    C46(1)    R23       1
    C47(1)    R24       1
    C48(1)    R25       1
    C49(1)    R26       1
RHS
    RHS1      R0        2.7657992192803812e+02
    RHS1      R1        3.5147330278343492e+02
    RHS1      R2        98
    RHS1      R3        56
    RHS1      R4        96
    RHS1      R5        96
    RHS1      R6        59
    RHS1      R7        69
    RHS1      R8        54
    RHS1      R9        83
    RHS1      R10       67
    RHS1      R11       54
    RHS1      R12       93
    RHS1      R13       88
    RHS1      R14       89
    RHS1      R15       85
    RHS1      R16       78
    RHS1      R17       62
    RHS1      R18       64
    RHS1      R19       91
    RHS1      R20       79
    RHS1      R21       63
    RHS1      R22       58
    RHS1      R23       78
    RHS1      R24       72
    RHS1      R25       85
    RHS1      R26       4
BOUNDS
 UP BND1      I0(13)    1
 UP BND1      I1(14)    1
 UP BND1      I2(11)    1
 UP BND1      I3(12)    1
 UP BND1      I4(14)    1
 UP BND1      I5(13)    1
 UP BND1      I6(13)    1
 UP BND1      I7(12)    1
 UP BND1      I8(13)    1
 UP BND1      I9(12)    1
 UP BND1      I10(15)   1
 UP BND1      I11(13)   1
ENDATA
